p wcnf 109 54 55 
1 32 -48 0 
1 -34 -1 0 
1 61 -83 0 
1 -99 47 0 
1 31 78 0 
1 -51 -41 0 
1 -90 -17 0 
1 -88 -107 0 
1 -69 -55 0 
1 78 22 0 
1 -108 -23 0 
1 103 -55 0 
1 34 -72 0 
1 78 -63 0 
1 82 68 0 
1 42 -58 0 
1 59 77 0 
1 27 -31 0 
1 -49 -26 0 
1 -95 25 0 
1 7 -104 0 
1 -1 -38 0 
1 44 84 0 
1 36 32 0 
1 17 -83 0 
1 81 13 0 
1 80 74 0 
1 -59 19 0 
1 5 11 0 
1 3 71 0 
1 -101 -75 0 
1 68 -3 0 
1 -92 60 0 
1 26 -54 0 
1 86 -33 0 
1 -25 7 0 
1 83 58 0 
1 -8 -76 0 
1 63 -51 0 
1 93 15 0 
1 -45 94 0 
1 -40 27 0 
1 -104 -11 0 
1 13 47 0 
1 39 65 0 
1 38 -65 0 
1 34 44 0 
1 28 -87 0 
1 85 69 0 
1 11 -36 0 
1 22 -33 0 
1 44 94 0 
1 -47 60 0 
1 -91 -42 0 
